
******************************************************************************
This program contains Ipopt, a library for large-scale nonlinear optimization.
 Ipopt is released as open source code under the Eclipse Public License (EPL).
         For more information visit https://github.com/coin-or/Ipopt
******************************************************************************

This is Ipopt version 3.14.16, running with linear solver MUMPS 5.7.3.

Number of nonzeros in equality constraint Jacobian...:        0
Number of nonzeros in inequality constraint Jacobian.:      578
Number of nonzeros in Lagrangian Hessian.............:        0

Total number of variables............................:       17
                     variables with only lower bounds:        0
                variables with lower and upper bounds:       17
                     variables with only upper bounds:        0
Total number of equality constraints.................:        0
Total number of inequality constraints...............:       34
        inequality constraints with only lower bounds:        0
   inequality constraints with lower and upper bounds:        0
        inequality constraints with only upper bounds:       34

iter    objective    inf_pr   inf_du lg(mu)  ||d||  lg(rg) alpha_du alpha_pr  ls
   0  9.5934971e-02 5.47e-01 1.00e+00   0.0 0.00e+00    -  0.00e+00 0.00e+00   0
   1  9.5507613e-02 5.30e-01 9.15e+00   0.4 7.05e+01    -  1.29e-02 4.67e-02f  1
   2  9.4702177e-02 3.16e-01 3.16e+01  -0.6 5.46e+00    -  5.60e-02 3.63e-01f  1
   3  9.2578971e-02 1.68e-01 2.06e+01  -0.6 8.73e+00    -  9.96e-01 4.18e-01f  1
   4  9.0882335e-02 2.11e-02 3.99e+00  -1.3 6.33e+00    -  7.44e-01 1.00e+00h  1
   5  9.0592502e-02 4.58e-03 8.09e-01  -2.9 2.88e-01    -  9.33e-01 1.00e+00h  1
   6  9.0202713e-02 1.07e-03 3.61e-02  -3.2 9.13e-01    -  9.98e-01 1.00e+00h  1
   7  8.9764477e-02 2.49e-04 9.35e-03  -4.4 5.75e-02    -  1.00e+00 1.00e+00h  1
   8  8.8646586e-02 5.60e-05 3.41e-01  -3.5 1.27e+00    -  1.00e+00 7.88e-01h  1
   9  8.0821517e-02 0.00e+00 5.43e+00  -3.5 4.40e+01    -  3.10e-01 1.00e+00h  1
iter    objective    inf_pr   inf_du lg(mu)  ||d||  lg(rg) alpha_du alpha_pr  ls
  10  6.7491365e-02 0.00e+00 6.96e-01  -3.0 6.52e+01    -  8.44e-01 1.00e+00h  1
  11  4.4719117e-02 0.00e+00 4.96e-01  -4.5 1.70e+02    -  3.67e-01 4.93e-01h  1
  12  4.5853931e-02 0.00e+00 2.26e-01  -3.0 1.78e+01    -  1.60e-01 1.29e-01h  1
  13  3.5480165e-02 6.51e+00 4.14e-01  -3.8 3.27e+00    -  1.28e-01 9.51e-01h  1
  14  3.6528507e-02 0.00e+00 2.62e-01  -3.3 3.15e+00    -  8.48e-01 1.00e+00h  1
  15  3.5326089e-02 1.93e-05 1.39e-02  -3.0 6.12e-01    -  1.00e+00 1.00e+00h  1
  16  3.2172242e-02 3.26e-01 1.25e-01  -3.5 2.54e+00    -  9.22e-01 1.00e+00h  1
  17  3.2249263e-02 4.19e-04 2.73e-01  -3.1 1.59e+00    -  1.00e+00 9.84e-01h  1
  18  3.2095388e-02 5.07e-05 1.06e-01  -3.2 1.27e-01    -  1.00e+00 1.00e+00h  1
  19  2.6374278e-02 0.00e+00 9.07e-02  -3.5 7.92e-01    -  1.00e+00 1.00e+00h  1
iter    objective    inf_pr   inf_du lg(mu)  ||d||  lg(rg) alpha_du alpha_pr  ls
  20  2.4412594e-02 0.00e+00 1.46e+00  -3.3 8.35e-01    -  1.00e+00 7.93e-01H  1
  21  1.2198883e-02 0.00e+00 4.56e-01  -3.9 7.27e-01    -  1.00e+00 1.00e+00h  1
  22  2.5976156e-02 0.00e+00 2.20e+00  -2.9 5.92e+00    -  9.83e-01 9.63e-01h  1
  23 -9.2385668e-02 0.00e+00 9.46e+00  -2.9 1.92e+01    -  9.55e-01 1.00e+00h  1
  24 -4.4212482e-02 0.00e+00 3.85e+01  -1.9 1.16e+02    -  3.73e-01 8.57e-02h  2
  25 -1.1001398e-01 2.74e+01 5.50e+01  -2.4 1.15e+04    -  3.83e-03 1.74e-02f  1
  26 -7.7135645e-02 0.00e+00 3.07e+03  -1.1 6.04e+04    -  1.00e+00 3.49e-03h  1
  27  4.5716847e-02 2.19e+01 1.31e+04  -1.2 1.19e+03    -  2.42e-02 1.00e+00f  1
  28  2.7812539e-02 2.42e+01 1.80e+03  -1.2 1.23e+03    -  4.38e-01 9.76e-01h  1
  29  4.8803874e-02 1.40e-04 9.31e+01  -1.2 9.46e+00    -  9.35e-01 1.00e+00h  1
iter    objective    inf_pr   inf_du lg(mu)  ||d||  lg(rg) alpha_du alpha_pr  ls
  30  5.0864867e-02 0.00e+00 4.14e+01  -1.2 1.08e+01    -  1.00e+00 6.28e-01H  1
  31  4.4194238e-02 3.42e-04 7.16e+00  -1.2 3.47e+00    -  1.00e+00 1.00e+00f  1
  32  2.6160963e-02 2.87e-06 7.33e-01  -1.2 1.20e+01    -  1.00e+00 1.00e+00h  1
  33  6.1804927e-02 1.40e-04 9.50e+00  -1.2 4.49e+01    -  4.90e-01 1.00e+00h  1
  34  4.5009893e-02 2.88e-05 2.76e+01  -1.2 6.75e+01    -  8.19e-01 1.00e+00h  1
  35  2.6336497e-02 4.08e-05 1.12e+02  -1.2 1.18e+02    -  1.00e+00 4.35e-01h  2
  36  4.4455723e-02 0.00e+00 1.75e+01  -1.2 9.25e+01    -  1.00e+00 3.38e-01h  2
  37  2.1684655e-02 0.00e+00 1.56e+02  -1.2 1.48e+01    -  1.00e+00 4.78e-01h  2
  38  3.6233599e-02 0.00e+00 3.21e+00  -1.2 1.65e+00    -  1.00e+00 1.00e+00H  1
  39  3.3198860e-02 0.00e+00 1.06e+02  -1.2 2.41e+01    -  8.89e-01 2.50e-01h  3
iter    objective    inf_pr   inf_du lg(mu)  ||d||  lg(rg) alpha_du alpha_pr  ls
  40  3.4772308e-02 0.00e+00 1.40e+00  -1.2 1.32e+01    -  1.00e+00 1.00e+00h  1
  41  1.0305543e-02 1.56e-04 6.65e+00  -1.2 1.08e+01    -  1.00e+00 1.00e+00h  1
  42  2.6389137e-02 0.00e+00 2.42e+00  -1.4 2.04e+01    -  7.75e-01 1.00e+00H  1
  43  2.6927356e-02 0.00e+00 6.03e-01  -1.4 4.41e+00    -  1.00e+00 1.00e+00h  1
  44  1.7713298e-02 0.00e+00 1.61e+00  -1.4 1.02e+00    -  1.00e+00 1.00e+00h  1
  45  1.3228504e-02 0.00e+00 9.77e-01  -1.4 1.06e+01    -  1.00e+00 1.00e+00h  1
  46  4.9817381e-03 0.00e+00 7.75e-01  -1.4 1.00e+01    -  1.00e+00 1.00e+00h  1
  47 -1.0627697e-02 0.00e+00 1.26e+00  -2.4 9.44e-01    -  9.97e-01 1.00e+00h  1
  48 -3.1856119e-01 4.42e+01 4.63e+01  -2.1 2.82e+00    -  1.00e+00 1.00e+00h  1
  49  4.3658418e-02 6.03e+01 1.99e+03  -0.6 2.12e+04    -  1.00e+00 1.85e-03h  1
iter    objective    inf_pr   inf_du lg(mu)  ||d||  lg(rg) alpha_du alpha_pr  ls
  50 -2.0870765e-01 6.25e+00 5.25e+02  -0.7 3.02e+00    -  9.73e-01 4.19e-01H  1
  51 -4.2045214e-01 7.54e+00 3.42e+02  -6.7 1.70e+01    -  4.50e-01 6.78e-02h  1
  52 -1.4439077e+00 1.40e+00 8.22e+02  -3.1 6.87e-01    -  6.81e-02 4.52e-02f  1
  53 -5.4526925e+00 5.16e+02 7.71e+02  -1.4 5.02e+02    -  8.43e-03 1.09e-02f  3
  54 -1.7110158e+01 4.25e+02 1.51e+03  -0.8 2.47e+03    -  3.09e-02 4.93e-04f  1
  55  2.8227983e-01 1.99e-03 1.30e+02  -7.0 1.13e+03    -  1.60e-03 5.82e-02h  2
  56 -2.6647358e+00 2.18e-03 4.01e+03  -1.1 1.31e+02    -  2.47e-01 1.00e+00f  1
  57 -9.0665674e-01 1.27e+02 3.40e+02   0.5 3.49e+02    -  1.00e+00 1.00e+00f  1
  58 -2.4955017e-01 2.23e-05 1.24e+03   0.5 5.67e+02    -  1.00e+00 8.60e-01h  1
  59 -2.2652871e+00 1.26e-04 1.92e+04   0.5 7.65e+01    -  1.00e+00 3.75e-01f  2
iter    objective    inf_pr   inf_du lg(mu)  ||d||  lg(rg) alpha_du alpha_pr  ls
  60 -1.5110473e+00 0.00e+00 7.87e+03   0.5 3.60e+01    -  7.66e-01 1.00e+00h  1
  61 -2.1437574e+00 0.00e+00 1.11e+03  -1.6 3.65e+01    -  6.74e-01 1.00e+00h  1
  62 -6.1702670e+00 9.57e-06 6.31e+06   1.5 3.15e+04    -  9.29e-01 3.47e-03f  2
  63 -3.7530315e+00 0.00e+00 3.38e+05   0.4 2.04e+01    -  9.46e-01 1.00e+00h  1
  64 -4.1136257e+00 0.00e+00 2.55e+03  -0.0 3.98e+02    -  1.00e+00 1.00e+00f  1
  65  4.9673411e-01 7.70e-05 7.49e+03  -0.1 5.07e+03    -  2.31e-01 1.53e-01H  1
  66  9.2822201e-02 3.91e-05 2.12e+03  -0.1 1.98e+02    -  9.88e-01 9.93e-01h  1
  67  7.5543804e-02 4.46e-05 1.36e+04  -0.1 7.69e+01    -  4.67e-01 1.00e+00f  1
  68  1.1508251e-01 2.68e-05 9.33e+02  -0.1 5.41e+01    -  1.00e+00 8.15e-01h  1
  69  3.7289267e-02 2.97e-05 5.28e+02  -0.1 1.13e+01    -  9.35e-01 1.00e+00f  1
iter    objective    inf_pr   inf_du lg(mu)  ||d||  lg(rg) alpha_du alpha_pr  ls
  70  5.7393506e-02 0.00e+00 4.61e+01  -0.1 2.56e+01    -  1.00e+00 1.00e+00h  1
  71  1.3810121e-01 0.00e+00 1.92e+02  -0.1 8.14e+00    -  1.00e+00 5.00e-01h  2
  72  4.7562172e-02 0.00e+00 4.39e+01  -0.1 2.18e+00    -  1.00e+00 1.00e+00h  1
  73 -6.4061788e-02 8.67e+00 7.02e+01  -0.1 8.17e+00    -  1.00e+00 1.00e+00h  1
  74 -2.6053070e+01 1.19e-04 1.40e+05  -0.1 4.74e-01    -  1.00e+00 1.00e+00h  1
  75  8.4627622e-02 3.82e+01 6.46e+03   0.6 4.29e+01    -  1.00e+00 2.13e-01h  1
  76  4.4050471e-02 1.64e+01 1.49e+03   0.4 2.40e+01    -  1.00e+00 7.88e-01h  1
  77  3.3439154e-02 0.00e+00 2.45e+02   0.4 1.20e+01    -  1.00e+00 1.00e+00f  1
  78  1.6116915e-01 5.74e+00 2.83e+02   0.4 3.01e+00    -  1.00e+00 1.00e+00f  1
  79  6.5359763e-01 3.31e+01 5.13e+02   0.4 9.09e+00    -  1.00e+00 1.00e+00f  1
iter    objective    inf_pr   inf_du lg(mu)  ||d||  lg(rg) alpha_du alpha_pr  ls
  80  1.4555534e-02 2.26e+01 5.38e+03   0.4 7.52e+00    -  1.00e+00 5.00e-01f  2
  81 -2.7786059e-03 2.00e+01 6.67e+01   0.4 2.43e+01    -  1.00e+00 1.00e+00f  1
  82  3.4662649e-02 2.89e+01 5.77e+01   0.4 1.73e+00    -  1.00e+00 1.00e+00h  1
  83  3.4466614e-02 2.83e+01 7.87e+02   0.4 6.35e+01    -  1.00e+00 8.40e-01h  1
  84  8.9416937e-03 1.67e-03 1.19e+03   0.4 2.33e+01    -  8.63e-01 1.00e+00f  1
  85 -1.4046714e-03 1.99e-04 3.44e+02   0.4 9.81e+00    -  1.00e+00 1.00e+00f  1
  86  2.4985931e-02 3.47e+01 3.73e+02   0.4 1.13e+01    -  9.77e-01 1.00e+00f  1
  87  2.6545273e-02 6.67e+01 2.13e+03   0.4 4.05e+01    -  7.34e-01 1.00e+00f  1
  88  2.8229348e-02 5.67e+01 1.12e+03   0.4 8.50e+01    -  1.00e+00 7.67e-01h  1
  89  2.2347000e-02 8.46e+01 1.50e+03   0.4 1.88e+01    -  1.62e-01 1.00e+00F  1
iter    objective    inf_pr   inf_du lg(mu)  ||d||  lg(rg) alpha_du alpha_pr  ls
  90  2.5798504e-02 8.14e+01 3.19e+02   0.4 5.70e+01    -  1.00e+00 5.08e-01h  1
  91  2.6333406e-02 7.46e+01 1.33e+03   0.4 9.14e+00    -  1.42e-01 6.31e-02h  1
  92  2.7299330e-02 5.42e-05 7.06e+02   0.4 5.51e+00    -  5.68e-01 5.55e-01f  1
  93  3.1272173e-02 0.00e+00 1.94e+02   0.4 2.18e+00    -  9.60e-01 1.00e+00f  1
  94 -1.2623025e-03 2.03e-03 3.06e+04   0.4 1.34e+02    -  7.02e-01 1.67e-01H  1
  95  4.1457804e-02 1.84e-03 2.52e+04   0.4 1.50e+01    -  1.88e-01 1.25e-01f  4
  96  2.6871353e-02 2.28e-04 3.86e+03   0.4 1.25e+01    -  9.31e-01 1.00e+00f  1
  97  3.2686519e-02 0.00e+00 3.44e+03   0.4 7.41e-01    -  8.30e-01 1.00e+00h  1
  98  6.9550466e-03 0.00e+00 5.11e+02   0.4 1.47e+01    -  7.39e-01 1.00e+00f  1
  99  3.5108215e-02 0.00e+00 1.66e+04   0.4 1.95e+02    -  6.42e-01 2.30e-01f  2
iter    objective    inf_pr   inf_du lg(mu)  ||d||  lg(rg) alpha_du alpha_pr  ls
 100  3.0435650e-02 0.00e+00 1.87e+04   0.4 2.23e+01    -  1.00e+00 5.00e-01h  2
 101 -8.2090793e-04 0.00e+00 1.67e+04   0.4 4.26e+01    -  6.95e-01 1.00e+00f  1
 102  5.7967778e-02 4.15e-04 8.64e+01   0.4 8.06e+01    -  1.00e+00 1.00e+00f  1
 103 -1.3655454e+00 9.19e-05 2.57e+02   0.4 1.44e+01    -  1.00e+00 1.00e+00h  1
 104  3.5806527e-02 3.48e-04 4.86e+02   0.4 2.22e+02    -  6.02e-01 5.00e-01f  2
 105  2.6982638e-02 4.51e+01 5.39e+01   0.4 1.44e+02    -  1.00e+00 1.00e+00h  1
 106  3.9207176e-02 4.30e+01 6.12e+01   0.4 1.69e+02    -  1.00e+00 9.28e-01h  1
 107  4.4649937e-02 5.26e-04 2.04e+02   0.4 7.52e+01    -  6.10e-01 5.00e-01f  2
 108  1.0861980e-01 2.77e-05 4.90e+01   0.4 1.19e+01    -  1.00e+00 1.00e+00h  1
 109  8.5562810e-02 0.00e+00 3.83e+03   0.4 6.11e+01    -  9.77e-01 1.25e-01f  4
iter    objective    inf_pr   inf_du lg(mu)  ||d||  lg(rg) alpha_du alpha_pr  ls
 110  1.2353213e-01 0.00e+00 3.96e+03   0.4 4.83e+02    -  1.91e-01 6.25e-02f  5
 111  1.1703904e-01 0.00e+00 3.54e+03   0.4 1.82e+00    -  1.00e+00 3.31e-02H  1
 112  7.7383726e-02 0.00e+00 3.08e+03   0.4 4.23e+01    -  6.53e-01 1.00e+00F  1
 113  7.3082126e-02 0.00e+00 3.69e+04   0.4 4.59e+01    -  9.33e-01 2.50e-01h  3
 114  5.6644270e-02 0.00e+00 3.01e+03   0.4 2.77e+01    -  1.00e+00 1.25e-01h  4
 115  9.4309378e-02 0.00e+00 2.19e+04   0.4 4.50e+01    -  9.65e-01 6.25e-02h  5
 116  3.6572220e-01 0.00e+00 2.09e+04   0.4 4.93e+02    -  2.00e-01 1.56e-02f  7
 117 -1.6340600e+01 9.70e+00 2.23e+05   0.4 1.18e+03    -  2.02e-01 7.86e-03f  7
 118 -7.8629399e-02 1.02e-03 2.65e+04   1.5 3.05e+02    -  6.02e-02 1.12e-03h  1
 119 -4.2004814e-01 2.87e-05 3.13e+04   0.5 1.31e+02    -  3.86e-02 5.52e-01f  1
iter    objective    inf_pr   inf_du lg(mu)  ||d||  lg(rg) alpha_du alpha_pr  ls
 120  4.0444846e-01 8.37e-04 4.43e+04   0.5 3.07e+02    -  1.05e-01 6.97e-01f  1
 121  5.5756815e-02 7.05e-05 3.93e+03   0.5 1.37e+02    -  3.92e-01 1.00e+00f  1
 122 -7.6453619e+00 6.49e-05 9.70e+04   0.5 2.01e+02    -  8.20e-01 4.22e-01h  2
 123  5.8344233e-01 1.62e-04 1.28e+04   0.5 3.47e+03    -  5.20e-02 1.00e+00f  1
 124  4.2096648e-01 1.62e-04 6.96e+03   0.5 3.63e+03    -  1.00e+00 4.82e-01h  2
 125  3.6490130e-01 1.58e-04 4.32e+03   0.5 1.88e+03    -  1.00e+00 4.71e-01h  2
 126  3.7796690e-01 1.33e-04 5.90e+02   0.5 9.91e+02    -  1.00e+00 9.13e-01h  1
 127  3.0555662e-01 1.30e-04 1.07e+03   0.5 1.66e+02    -  8.09e-01 4.20e-03f  8
 128  6.3212259e-02 4.99e-05 5.36e+03   0.5 3.18e+02    -  4.67e-01 1.00e+00f  1
 129  4.1990727e-02 0.00e+00 2.88e+03   0.5 3.88e+02    -  1.00e+00 5.00e-01h  2
iter    objective    inf_pr   inf_du lg(mu)  ||d||  lg(rg) alpha_du alpha_pr  ls
 130 -1.6537834e+00 2.03e+02 1.71e+03   0.5 4.59e+01    -  1.00e+00 2.50e-01h  3
 131 -1.2242426e+01 0.00e+00 1.60e+04   0.5 9.18e+01    -  1.00e+00 2.50e-01h  3
 132 -2.5095980e+01 0.00e+00 6.50e+04   0.5 7.50e+01    -  1.00e+00 2.35e-01f  3
 133 -1.8757522e+01 2.45e+01 2.72e+04   1.6 1.75e+03    -  8.94e-01 1.00e+00f  1
 134  5.2699984e-02 9.40e-04 5.79e+04   1.5 2.84e+03    -  4.93e-01 5.81e-01h  1
 135  6.6223611e-01 2.76e-01 3.90e+03   1.5 2.61e+02    -  1.00e+00 9.89e-01h  1
 136  2.0195116e-01 6.33e-06 8.28e+04   0.8 1.07e+02    -  3.99e-01 1.00e+00f  1
 137  6.3353548e-02 0.00e+00 2.56e+02   0.8 8.70e+01    -  1.00e+00 1.00e+00h  1
 138  5.6070068e-02 0.00e+00 2.63e+01   0.1 1.90e+01    -  1.00e+00 1.00e+00h  1
 139  7.2417036e-02 0.00e+00 5.57e+02  -0.6 1.51e+00    -  9.92e-01 1.00e+00h  1
iter    objective    inf_pr   inf_du lg(mu)  ||d||  lg(rg) alpha_du alpha_pr  ls
 140  8.7121496e-02 0.00e+00 3.83e+03  -0.6 1.55e+01    -  1.00e+00 5.00e-01h  2
 141  8.9717814e-02 0.00e+00 4.18e+01  -0.6 4.14e+00    -  1.00e+00 1.00e+00H  1
 142  1.0931246e-02 2.25e-01 3.78e+03  -0.6 8.12e+00    -  7.00e-01 1.00e+00h  1
 143 -1.2983517e-02 0.00e+00 1.93e+03  -0.6 1.88e+02    -  3.05e-01 6.66e-02h  3
 144  6.1497100e-02 1.95e-05 1.90e+03  -0.6 8.00e+03    -  2.89e-02 8.39e-02f  2
 145  6.7423459e-02 0.00e+00 5.03e+00  -0.6 5.45e+02    -  1.00e+00 1.00e+00h  1
 146  6.8517110e-02 5.78e-04 1.86e+01  -0.6 1.74e+02    -  8.81e-01 9.21e-01h  1
 147  6.9379375e-02 3.73e-05 3.74e+00  -0.6 1.75e+01    -  1.00e+00 1.00e+00h  1
 148  6.9501641e-02 2.03e-05 2.34e+01  -0.6 4.33e+00    -  9.71e-01 6.25e-02h  5
 149  6.9565372e-02 0.00e+00 6.50e+00  -0.6 1.32e-01    -  1.00e+00 1.00e+00h  1
iter    objective    inf_pr   inf_du lg(mu)  ||d||  lg(rg) alpha_du alpha_pr  ls
 150  6.9548121e-02 0.00e+00 3.35e-01  -1.5 3.99e-01    -  9.98e-01 1.00e+00h  1
 151  6.9544965e-02 0.00e+00 2.18e+00  -3.6 2.53e-02    -  9.98e-01 1.00e+00h  1
 152  6.9526548e-02 0.00e+00 1.00e-02  -4.0 9.10e-02    -  1.00e+00 1.00e+00h  1
 153  5.6347358e-02 5.71e-04 1.50e+01  -2.8 3.66e+02    -  4.65e-01 1.46e-01f  1
 154  4.4218379e-02 3.34e-05 1.06e-01  -3.2 2.37e+01    -  1.00e+00 1.00e+00h  1
 155  3.5721175e-02 4.89e+00 2.60e+00  -3.2 3.42e+01    -  1.00e+00 7.07e-01h  1
 156  3.7679641e-02 0.00e+00 1.21e-02  -3.2 1.70e+00    -  1.00e+00 1.00e+00h  1
 157  3.7401022e-02 0.00e+00 6.99e-03  -3.2 4.71e-01    -  1.00e+00 1.00e+00h  1
 158  3.5994919e-02 0.00e+00 2.52e-02  -4.1 1.10e+00    -  9.97e-01 1.00e+00h  1
 159  3.4544201e-02 0.00e+00 4.88e-02  -3.5 6.36e-01    -  1.00e+00 1.00e+00h  1
iter    objective    inf_pr   inf_du lg(mu)  ||d||  lg(rg) alpha_du alpha_pr  ls
 160  3.4400347e-02 0.00e+00 2.11e-02  -3.7 3.62e-01    -  1.00e+00 1.00e+00h  1
 161  2.8799392e-02 4.93e+00 4.71e-02  -4.0 9.18e-01    -  1.00e+00 1.00e+00h  1
 162  2.0269954e-02 1.42e+01 5.23e-02  -4.2 3.54e+00    -  3.09e-01 3.10e-01h  1
 163  2.0291808e-02 1.37e+01 1.45e+00  -4.2 2.78e+00    -  9.70e-01 7.54e-02h  1
 164  2.0574760e-02 9.96e+00 2.24e-01  -4.2 8.02e-01    -  1.00e+00 2.69e-01h  1
 165  2.0382266e-02 0.00e+00 3.44e-02  -4.2 2.11e-01    -  9.57e-01 1.00e+00h  1
 166  1.9603906e-02 0.00e+00 3.85e-02  -4.7 7.86e-01    -  8.04e-01 9.65e-01h  1
 167  1.8954517e-02 8.85e-03 4.07e-03  -4.5 2.12e+00    -  5.33e-01 2.02e-01h  1
 168  1.2877806e-02 7.61e+00 5.22e-02  -4.5 2.20e+00    -  3.10e-01 1.97e-01h  1
 169  8.1432689e-03 1.69e+01 4.24e-02  -4.5 1.86e+01    -  1.54e-01 3.91e-02h  1
iter    objective    inf_pr   inf_du lg(mu)  ||d||  lg(rg) alpha_du alpha_pr  ls
 170  6.4431172e-03 1.06e+01 2.95e-02  -4.5 1.67e+00    -  3.29e-01 4.78e-01h  1
 171  6.4528754e-03 7.34e+00 2.02e-01  -4.5 1.22e+00    -  5.79e-01 2.83e-01h  1
 172  5.2486306e-03 7.65e+00 1.14e-01  -4.5 3.35e+00    -  2.83e-01 2.21e-01h  1
 173  5.1618749e-03 5.79e+00 7.38e-02  -4.5 1.01e+00    -  9.41e-01 2.32e-01h  1
 174  5.3461517e-03 3.03e+00 5.22e-02  -4.5 6.06e-01    -  6.68e-01 4.05e-01h  1
 175  5.3592567e-03 5.95e-01 2.11e-02  -4.5 1.94e-01    -  5.93e-01 6.34e-01h  1
 176  5.3533907e-03 0.00e+00 1.73e-02  -4.5 1.03e-01    -  1.00e+00 7.61e-01h  1
 177  5.1844467e-03 0.00e+00 2.00e-04  -5.3 3.28e-01    -  1.00e+00 1.00e+00h  1

Number of Iterations....: 177

                                   (scaled)                 (unscaled)
Objective...............:   5.1844466961948124e-03    5.1844466961948124e-03
Dual infeasibility......:   1.9978482856192493e-04    1.9978482856192493e-04
Constraint violation....:   0.0000000000000000e+00    0.0000000000000000e+00
Variable bound violation:   0.0000000000000000e+00    0.0000000000000000e+00
Complementarity.........:   9.4025793216862841e-06    9.4025793216862841e-06
Overall NLP error.......:   1.9978482856192493e-04    1.9978482856192493e-04


Number of objective function evaluations             = 314
Number of objective gradient evaluations             = 178
Number of equality constraint evaluations            = 0
Number of inequality constraint evaluations          = 316
Number of equality constraint Jacobian evaluations   = 0
Number of inequality constraint Jacobian evaluations = 178
Number of Lagrangian Hessian evaluations             = 0
Total seconds in IPOPT                               = 50.681

EXIT: Optimal Solution Found.
